nI = 4;
nK = 3;
nS = 3;

prob = [0.25, 0.50, 0.25];

stock = [30, 22, 18];

capacite = [20, 15, 18, 17];

cout_rupture = [45.0, 40.0, 50.0];

cout_transport = array2d(1..4, 1..4, [
  0.0, 17.39252713, 47.31278897, 40.4060439,
  17.39252713, 0.0, 31.11269837, 33.45519392,
  47.31278897, 31.11269837, 0.0, 29.61840644,
  40.4060439, 33.45519392, 29.61840644, 0.0
]);

demande = array3d(1..4, 1..3, 1..3, [
  % A, Nacelle
  7, 10, 12,
  % A, Chariot
  5, 7, 10,
  % A, Excavatrice
  4, 5, 6,

  % B, Nacelle
  6, 9, 11,
  % B, Chariot
  5, 7, 10,
  % B, Excavatrice
  4, 5, 6,

  % C, Nacelle
  5, 8, 10,
  % C, Chariot
  4, 6, 9,
  % C, Excavatrice
  5, 7, 9,

  % D, Nacelle
  7, 10, 12,
  % D, Chariot
  4, 6, 9,
  % D, Excavatrice
  3, 4, 5
]);

xFix = array2d(1..4, 1..3, [
  -1, -1, -1,
  -1, -1, -1,
  -1, -1, -1,
  -1, -1, -1
]);